problems/01-example-paskin/01-example-paskin.gr
p tw 6 7
1 3
1 2
2 4
3 5
2 5
2 6
5 6
