problems/01-example-paskin/01-example-paskin.td
c read Graph
c width = 2
c time = 4 ms
c width = 2
c time = 4920 ms
s td 4 3 6
b 1 2 4
b 2 1 2 5
b 3 2 5 6
b 4 1 3 5
1 2
2 4
2 3
