problems/01-example-paskin/01-example-paskin.uai
MARKOV
6
2 2 2 2 2 2
5
2 0 2
2 0 1
2 1 3
2 2 4
3 1 4 5

4
 0.128 0.872 0.920 0.080

4
 0.128 0.872 0.920 0.080

4
 0.128 0.872 0.920 0.080

4
 0.128 0.872 0.920 0.080

8
 1.000 0.000 0.500 0.000 0.000 1.000 0.500 1.000

